0 30 0
3 23 4
7 0 7
18 37 2
23 24 5
24 7 6
30 18 1
37 3 3
next
0 16 22 0
0 21 1 0
0 21 9 0
0 21 12 0
0 21 12 7
0 21 32 0
0 21 34 0
0 21 47 7
0 22 20 7
0 47 35 0
0 52 19 0
0 57 43 0
0 58 36 0
0 61 29 4
0 63 11 4
0 63 44 5
0 69 4 2
0 72 25 4
0 75 5 4
0 77 4 3
0 82 10 2
0 91 6 5
0 95 33 1
0 100 31 7
0 101 27 0
0 106 13 2
0 106 15 6
0 116 26 6
0 116 41 2
0 119 39 6
0 141 42 0
1 16 22 0
1 21 28 7
1 21 32 0
1 21 32 7
1 21 34 0
1 21 34 7
1 21 48 0
1 52 2 0
1 58 36 0
1 62 45 4
1 63 11 4
1 69 17 2
1 74 46 2
1 74 46 6
1 77 4 3
1 87 16 4
1 94 40 6
1 100 14 7
1 106 8 6
1 106 13 6
1 106 15 2
1 106 15 6
1 106 38 6
1 122 21 1
